
Gurobi 9.5.0 (linux64) logging started Thu Dec  7 22:26:12 2023

Set parameter LogFile to value "/lustre1/scratch/348/vsc34888/JointResearch/05.Models/06.Benchmarking/B.Operation_cost/RTS24_mod1_ByStages_nc20/openStarNet_RTS24_mod1_ByStages_nc20.log"
Set parameter Method to value 2
Set parameter MIPFocus to value 1
Set parameter Presolve to value 2
Set parameter RINS to value 100
Set parameter MIPGap to value 0.01
Set parameter Threads to value 36
Set parameter TimeLimit to value 259200
Set parameter IterationLimit to value 760000000
Gurobi Optimizer version 9.5.0 build v9.5.0rc5 (linux64)
Thread count: 36 physical cores, 36 logical processors, using up to 36 threads
Optimize a model with 5683 rows, 3855 columns and 15488 nonzeros
Model fingerprint: 0x1e94f87c
Variable types: 3834 continuous, 21 integer (21 binary)
Coefficient statistics:
  Matrix range     [8e-03, 1e+03]
  Objective range  [1e+00, 1e+00]
  Bounds range     [1e-04, 2e+00]
  RHS range        [1e-04, 1e+00]
Presolve removed 3387 rows and 1951 columns
Presolve time: 0.02s
Presolved: 2296 rows, 1904 columns, 8291 nonzeros
Variable types: 1883 continuous, 21 integer (21 binary)
Found heuristic solution: objective 43.4864204
Root relaxation presolve removed 6 rows and 6 columns
Root relaxation presolved: 2290 rows, 1898 columns, 8279 nonzeros

Root barrier log...

Ordering time: 0.04s

Barrier statistics:
 AA' NZ     : 5.437e+04
 Factor NZ  : 2.495e+05 (roughly 4 MB of memory)
 Factor Ops : 4.337e+07 (less than 1 second per iteration)
 Threads    : 36

                  Objective                Residual
Iter       Primal          Dual         Primal    Dual     Compl     Time
   0   5.20224210e+05 -3.22255576e+07  4.97e+00 4.47e+02  1.65e+04     0s
   1   4.44602824e+04 -7.94383897e+06  4.82e-01 6.40e-11  2.04e+03     0s
   2   1.35271412e+04 -5.79998898e+06  1.28e-01 6.94e-11  1.20e+03     0s
   3   4.06752979e+03 -3.42481904e+05  1.37e-03 7.69e-11  6.48e+01     0s
   4   2.67591324e+03 -1.45835622e+04  3.62e-13 9.50e-12  3.22e+00     0s
   5   3.80385871e+02 -2.86889934e+03  1.99e-13 1.82e-12  6.05e-01     0s
   6   1.80537769e+02 -7.65384535e+02  1.07e-13 1.82e-12  1.76e-01     0s
   7   1.06567794e+02 -2.34013079e+02  6.84e-14 1.82e-12  6.34e-02     0s
   8   5.58309103e+01 -5.54821879e+01  1.22e-13 1.82e-12  2.07e-02     0s
   9   3.63113703e+01  6.90982368e+00  7.19e-14 3.64e-12  5.48e-03     0s
  10   2.86117564e+01  1.93537319e+01  4.57e-13 1.82e-12  1.72e-03     0s
  11   2.66615146e+01  2.14247168e+01  1.76e-12 1.82e-12  9.76e-04     0s
  12   2.55954563e+01  2.29042782e+01  7.60e-12 1.82e-12  5.01e-04     0s
  13   2.48932699e+01  2.43298571e+01  1.42e-11 1.82e-12  1.05e-04     0s
  14   2.45487225e+01  2.44321724e+01  1.84e-11 1.82e-12  2.17e-05     0s
  15   2.45181333e+01  2.44765077e+01  1.95e-11 3.64e-12  7.75e-06     0s
  16   2.44901256e+01  2.44844604e+01  8.33e-11 1.82e-12  1.06e-06     0s
  17   2.44862291e+01  2.44853535e+01  1.77e-10 5.46e-12  1.63e-07     0s
  18   2.44854195e+01  2.44854043e+01  2.68e-10 3.64e-12  2.82e-09     0s
  19   2.44854068e+01  2.44854068e+01  1.44e-10 3.64e-12  2.30e-12     0s

Barrier solved model in 19 iterations and 0.33 seconds (0.09 work units)
Optimal objective 2.44854068e+01


Root relaxation: objective 2.448541e+01, 342 iterations, 0.30 seconds (0.06 work units)

    Nodes    |    Current Node    |     Objective Bounds      |     Work
 Expl Unexpl |  Obj  Depth IntInf | Incumbent    BestBd   Gap | It/Node Time

     0     0   24.48541    0   12   43.48642   24.48541  43.7%     -    0s
     0     0   24.73387    0   11   43.48642   24.73387  43.1%     -    0s
H    0     0                      40.0930744   24.73387  38.3%     -    0s
     0     0   24.73387    0    9   40.09307   24.73387  38.3%     -    0s
H    0     0                      38.0509855   24.73387  35.0%     -    0s
     0     0   24.73387    0    9   38.05099   24.73387  35.0%     -    0s
     0     0   24.73387    0    9   38.05099   24.73387  35.0%     -    0s
     0     0   25.00982    0    9   38.05099   25.00982  34.3%     -    0s
     0     0   25.46915    0    9   38.05099   25.46915  33.1%     -    0s
     0     0   26.64240    0    9   38.05099   26.64240  30.0%     -    0s
     0     0   26.79866    0    8   38.05099   26.79866  29.6%     -    0s
H    0     0                      36.8696839   26.79866  27.3%     -    1s
     0     2   26.79866    0    8   36.86968   26.79866  27.3%     -    1s
H   92    75                      36.5654739   26.80445  26.7%  60.0    1s

Cutting planes:
  Gomory: 1
  MIR: 31
  Relax-and-lift: 12

Explored 902 nodes (33095 simplex iterations) in 2.14 seconds (1.64 work units)
Thread count was 36 (of 36 available processors)

Solution count 5: 36.5655 36.8697 38.051 ... 43.4864

Optimal solution found (tolerance 1.00e-02)
Best objective 3.656547390987e+01, best bound 3.656547390987e+01, gap 0.0000%

Gurobi 9.5.0 (linux64) logging started Thu Dec  7 22:26:15 2023

Set parameter LogFile to value "/lustre1/scratch/348/vsc34888/JointResearch/05.Models/06.Benchmarking/B.Operation_cost/RTS24_mod1_ByStages_nc20/openStarNet_RTS24_mod1_ByStages_nc20.log"
Set parameter Method to value 2
Set parameter MIPFocus to value 1
Set parameter Presolve to value 2
Set parameter RINS to value 100
Set parameter MIPGap to value 0.01
Set parameter Threads to value 36
Set parameter TimeLimit to value 259200
Set parameter IterationLimit to value 760000000
No parameters matching 'relax_integrality' found
Gurobi Optimizer version 9.5.0 build v9.5.0rc5 (linux64)
Thread count: 36 physical cores, 36 logical processors, using up to 36 threads
Optimize a model with 5683 rows, 3834 columns and 14123 nonzeros
Model fingerprint: 0xb273456d
Coefficient statistics:
  Matrix range     [8e-03, 1e+03]
  Objective range  [1e+00, 1e+00]
  Bounds range     [1e-04, 2e+00]
  RHS range        [1e-04, 1e+01]
Presolve removed 4691 rows and 2115 columns
Presolve time: 0.01s
Presolved: 992 rows, 1751 columns, 4471 nonzeros

Ordering time: 0.00s

Barrier statistics:
 AA' NZ     : 2.640e+03
 Factor NZ  : 8.400e+03 (roughly 1 MB of memory)
 Factor Ops : 1.102e+05 (less than 1 second per iteration)
 Threads    : 1

                  Objective                Residual
Iter       Primal          Dual         Primal    Dual     Compl     Time
   0   4.20685803e+05 -2.14311514e+06  4.62e+00 6.16e+02  3.64e+03     0s
   1   3.54311113e+04 -1.06983457e+06  3.59e-01 4.19e-12  5.17e+02     0s
   2   7.31794782e+03 -1.45749943e+05  2.52e-03 4.58e-12  5.15e+01     0s
   3   1.26454550e+03 -5.94862786e+03  1.55e-14 2.20e-12  2.41e+00     0s
   4   2.38999848e+02 -6.13476230e+02  1.37e-14 1.82e-12  2.85e-01     0s
   5   9.70368076e+01 -1.37692239e+02  4.55e-15 1.36e-12  7.85e-02     0s
   6   5.91376647e+01 -1.80897877e+01  1.03e-14 9.09e-13  2.58e-02     0s
   7   4.11532417e+01  2.88099609e+01  7.77e-15 9.09e-13  4.13e-03     0s
   8   3.71138669e+01  3.61553647e+01  9.93e-14 9.09e-13  3.21e-04     0s
   9   3.65829318e+01  3.65435289e+01  1.78e-12 9.09e-13  1.32e-05     0s
  10   3.65655560e+01  3.65651910e+01  1.22e-13 1.82e-12  1.22e-07     0s
  11   3.65654739e+01  3.65654738e+01  2.65e-12 1.82e-12  2.57e-11     0s
  12   3.65654739e+01  3.65654739e+01  1.34e-13 1.36e-12  3.87e-17     0s

Barrier solved model in 12 iterations and 0.02 seconds (0.02 work units)
Optimal objective 3.65654739e+01

Crossover log...

     205 DPushes remaining with DInf 0.0000000e+00                 0s

      69 PPushes remaining with PInf 0.0000000e+00                 0s
       0 PPushes remaining with PInf 0.0000000e+00                 0s

  Push phase complete: Pinf 0.0000000e+00, Dinf 3.3666125e-13      0s

Iteration    Objective       Primal Inf.    Dual Inf.      Time
      72    3.6565474e+01   0.000000e+00   0.000000e+00      0s

Use crossover to convert LP symmetric solution to basic solution...
Crossover log...

      56 PPushes remaining with PInf 0.0000000e+00                 0s
       0 PPushes remaining with PInf 0.0000000e+00                 0s

  Push phase complete: Pinf 0.0000000e+00, Dinf 3.7607764e-13      0s

Iteration    Objective       Primal Inf.    Dual Inf.      Time
     131    3.6565474e+01   0.000000e+00   0.000000e+00      0s

Solved in 131 iterations and 0.03 seconds (0.02 work units)
Optimal objective  3.656547391e+01

Gurobi 10.0.0 (win64) logging started Sat Dec  9 11:09:30 2023

Set parameter LogFile to value "C:\Users\ealvarezq\Documents\GitHub\Comillas\Models\JointResearch\05. Models\06.Benchmarking\B.Operation_cost\RTS24_mod1_ByStages_nc20/openStarNet_RTS24_mod1_ByStages_nc20.log"
Set parameter Method to value 2
Set parameter MIPFocus to value 1
Set parameter Presolve to value 2
Set parameter RINS to value 100
Set parameter MIPGap to value 0.01
Set parameter Threads to value 9
Set parameter TimeLimit to value 259200
Set parameter IterationLimit to value 760000000
Gurobi Optimizer version 10.0.0 build v10.0.0rc2 (win64)

CPU model: Intel(R) Core(TM) i7-8700 CPU @ 3.20GHz, instruction set [SSE2|AVX|AVX2]
Thread count: 6 physical cores, 12 logical processors, using up to 9 threads

Optimize a model with 8524 rows, 5781 columns and 23251 nonzeros
Model fingerprint: 0xafcee31a
Variable types: 5760 continuous, 21 integer (21 binary)
Coefficient statistics:
  Matrix range     [4e-03, 1e+03]
  Objective range  [1e+00, 1e+00]
  Bounds range     [2e-04, 2e+00]
  RHS range        [2e-04, 2e+00]
Presolve removed 5080 rows and 2925 columns
Presolve time: 0.03s
Presolved: 3444 rows, 2856 columns, 12447 nonzeros
Variable types: 2835 continuous, 21 integer (21 binary)
Found heuristic solution: objective 130.2485261
Root relaxation presolve removed 5 rows and 5 columns
Root relaxation presolved: 3439 rows, 2851 columns, 12437 nonzeros

Root barrier log...

Ordering time: 0.06s

Barrier statistics:
 AA' NZ     : 1.138e+05
 Factor NZ  : 5.463e+05 (roughly 7 MB of memory)
 Factor Ops : 1.387e+08 (less than 1 second per iteration)
 Threads    : 9

                  Objective                Residual
Iter       Primal          Dual         Primal    Dual     Compl     Time
   0   3.91826491e+06 -5.70030574e+07  2.24e+01 5.82e+02  6.00e+04     0s
   1   1.24923816e+06 -3.11293165e+07  7.11e+00 4.29e+01  1.76e+04     0s
   2   9.73942104e+04 -1.71649628e+07  5.75e-01 4.23e+00  3.00e+03     0s
   3   3.65607382e+04 -2.69295670e+06  1.83e-01 7.15e-11  4.43e+02     0s
   4   1.36630608e+04 -3.01898563e+05  2.06e-03 7.20e-11  3.94e+01     0s
   5   4.86911885e+03 -5.79867066e+04  5.18e-13 2.55e-11  7.80e+00     0s
   6   7.31562444e+02 -2.11898534e+03  5.30e-13 1.82e-12  3.54e-01     0s
   7   4.19651001e+02 -8.44592855e+02  2.07e-13 1.38e-12  1.57e-01     0s
   8   2.23565515e+02 -2.55014337e+02  2.21e-13 1.59e-12  5.94e-02     0s
   9   1.03781181e+02 -2.18822858e+01  2.24e-13 2.16e-12  1.56e-02     0s
  10   7.95783984e+01  1.64579229e+01  3.26e-13 2.41e-12  7.83e-03     0s
  11   6.89602260e+01  4.77869622e+01  2.89e-13 4.99e-12  2.63e-03     0s
  12   6.56195047e+01  5.53156861e+01  4.38e-13 1.91e-12  1.28e-03     0s
  13   6.28890255e+01  5.97499987e+01  1.61e-12 1.75e-12  3.90e-04     0s
  14   6.17289839e+01  6.08647805e+01  2.69e-12 2.42e-12  1.07e-04     0s
  15   6.15244521e+01  6.12561241e+01  8.51e-12 2.40e-12  3.33e-05     0s
  16   6.14397738e+01  6.13468452e+01  3.81e-11 2.76e-12  1.15e-05     0s
  17   6.14039423e+01  6.13839494e+01  1.92e-11 5.55e-12  2.48e-06     0s
  18   6.13912325e+01  6.13890108e+01  6.40e-10 5.95e-12  2.76e-07     0s
  19   6.13903875e+01  6.13899678e+01  1.10e-10 4.10e-12  5.21e-08     0s
  20   6.13902065e+01  6.13902038e+01  4.19e-11 2.34e-12  3.33e-10     0s
  21   6.13902051e+01  6.13902051e+01  1.45e-11 2.96e-12  6.78e-13     0s

Barrier solved model in 21 iterations and 0.25 seconds (0.19 work units)
Optimal objective 6.13902051e+01


Root relaxation: objective 6.139021e+01, 536 iterations, 0.20 seconds (0.13 work units)

    Nodes    |    Current Node    |     Objective Bounds      |     Work
 Expl Unexpl |  Obj  Depth IntInf | Incumbent    BestBd   Gap | It/Node Time

     0     0   61.39021    0   15  130.24853   61.39021  52.9%     -    0s
     0     0   62.65326    0   14  130.24853   62.65326  51.9%     -    0s
H    0     0                     125.5211689   62.65326  50.1%     -    0s
H    0     0                     118.9138518   62.89875  47.1%     -    0s
H    0     0                     114.7014204   62.89875  45.2%     -    0s
     0     0   64.77105    0   14  114.70142   64.77105  43.5%     -    0s
     0     0   65.17488    0   14  114.70142   65.17488  43.2%     -    0s
     0     0   65.33893    0   13  114.70142   65.33893  43.0%     -    0s
H    0     0                     106.6751872   65.33893  38.7%     -    0s
     0     0   65.33893    0   13  106.67519   65.33893  38.7%     -    0s
     0     0   65.33893    0   13  106.67519   65.33893  38.7%     -    0s
H    0     0                     100.0812750   65.33893  34.7%     -    0s
     0     0   65.96573    0   15  100.08128   65.96573  34.1%     -    0s
     0     0   66.29083    0   14  100.08128   66.29083  33.8%     -    0s
     0     0   66.32384    0   12  100.08128   66.32384  33.7%     -    0s
     0     0   66.32384    0   14  100.08128   66.32384  33.7%     -    0s
     0     0   66.58522    0   15  100.08128   66.58522  33.5%     -    0s
     0     0   66.60016    0   11  100.08128   66.60016  33.5%     -    0s
     0     0   66.60016    0   11  100.08128   66.60016  33.5%     -    0s
     0     0   67.94075    0   11  100.08128   67.94075  32.1%     -    0s
H    0     0                      89.6335439   67.94075  24.2%     -    2s
     0     2   67.94075    0   11   89.63354   67.94075  24.2%     -    2s
H   96    80                      87.1943489   68.08044  21.9%   147    3s
   497   209   77.96812    7   13   87.19435   70.10660  19.6%   104    6s
H  522   209                      87.1525082   70.10660  19.6%   103    6s
H  627   217                      87.1008563   70.81966  18.7%  99.0    7s
  1091   300     cutoff   14        87.10086   75.63383  13.2%  90.2   10s
H 1594   365                      87.0017631   78.94057  9.27%  82.7   11s
  2734   459     cutoff   12        87.00176   81.60943  6.20%  74.3   15s
  3894   370     cutoff   16        87.00176   83.68309  3.81%  68.0   21s
  4500   137   84.79901   13    8   87.00176   84.69723  2.65%  64.8   25s

Cutting planes:
  Gomory: 2
  Implied bound: 20
  MIR: 113
  Relax-and-lift: 9

Explored 5054 nodes (310088 simplex iterations) in 26.34 seconds (32.40 work units)
Thread count was 9 (of 12 available processors)

Solution count 10: 87.0018 87.1009 87.1525 ... 125.521

Optimal solution found (tolerance 1.00e-02)
Best objective 8.700176309410e+01, best bound 8.700176309410e+01, gap 0.0000%

Gurobi 10.0.0 (win64) logging started Sat Dec  9 11:09:57 2023

Set parameter LogFile to value "C:\Users\ealvarezq\Documents\GitHub\Comillas\Models\JointResearch\05. Models\06.Benchmarking\B.Operation_cost\RTS24_mod1_ByStages_nc20/openStarNet_RTS24_mod1_ByStages_nc20.log"
Set parameter Method to value 2
Set parameter MIPFocus to value 1
Set parameter Presolve to value 2
Set parameter RINS to value 100
Set parameter MIPGap to value 0.01
Set parameter Threads to value 9
Set parameter TimeLimit to value 259200
Set parameter IterationLimit to value 760000000
No parameters matching 'relax_integrality' found
Gurobi Optimizer version 10.0.0 build v10.0.0rc2 (win64)

CPU model: Intel(R) Core(TM) i7-8700 CPU @ 3.20GHz, instruction set [SSE2|AVX|AVX2]
Thread count: 6 physical cores, 12 logical processors, using up to 9 threads

Optimize a model with 8524 rows, 5760 columns and 21214 nonzeros
Model fingerprint: 0x58003cf6
Coefficient statistics:
  Matrix range     [4e-03, 1e+03]
  Objective range  [1e+00, 1e+00]
  Bounds range     [2e-04, 2e+00]
  RHS range        [2e-04, 3e+01]
Presolve removed 7228 rows and 3340 columns
Presolve time: 0.01s
Presolved: 1296 rows, 2444 columns, 5876 nonzeros

Ordering time: 0.00s

Barrier statistics:
 AA' NZ     : 3.216e+03
 Factor NZ  : 1.152e+04 (roughly 1 MB of memory)
 Factor Ops : 1.510e+05 (less than 1 second per iteration)
 Threads    : 1

                  Objective                Residual
Iter       Primal          Dual         Primal    Dual     Compl     Time
   0   6.70311171e+06 -2.22445891e+07  2.05e+01 4.61e+03  1.14e+05     0s
   1   4.18299532e+05 -1.83023611e+07  1.25e+00 3.64e-11  1.04e+04     0s
   2   7.20307173e+04 -5.30411074e+06  2.44e-01 1.02e-10  1.88e+03     0s
   3   3.22663528e+04 -1.84210360e+06  4.82e-02 2.91e-11  5.07e+02     0s
   4   1.94652312e+04 -2.83896937e+05  1.14e-03 2.55e-11  7.23e+01     0s
   5   8.90615734e+03 -4.50554017e+04  5.72e-11 1.32e-11  1.28e+01     0s
   6   1.50989719e+03 -5.85126175e+03  2.10e-11 8.41e-12  1.75e+00     0s
   7   4.12453487e+02 -1.08764965e+03  9.05e-12 8.95e-12  3.56e-01     0s
   8   2.15503380e+02 -1.71311768e+02  5.22e-12 7.96e-12  9.17e-02     0s
   9   1.21276515e+02 -3.61879756e+01  8.23e-12 5.18e-12  3.73e-02     0s
  10   1.01739950e+02  3.10213624e+01  9.93e-12 7.18e-12  1.68e-02     0s
  11   9.31571551e+01  7.29171069e+01  1.54e-11 6.49e-12  4.80e-03     0s
  12   8.77085405e+01  8.20409802e+01  2.53e-11 4.92e-12  1.34e-03     0s
  13   8.70608295e+01  8.64978185e+01  9.91e-11 4.77e-12  1.34e-04     0s
  14   8.70037439e+01  8.69766089e+01  2.27e-11 9.11e-12  6.44e-06     0s
  15   8.70018507e+01  8.70014715e+01  3.46e-11 8.91e-12  9.00e-08     0s
  16   8.70017631e+01  8.70017631e+01  4.31e-11 1.05e-11  1.74e-12     0s
  17   8.70017631e+01  8.70017631e+01  1.04e-12 1.46e-11  5.52e-17     0s

Barrier solved model in 17 iterations and 0.02 seconds (0.03 work units)
Optimal objective 8.70017631e+01

Crossover log...

     306 DPushes remaining with DInf 0.0000000e+00                 0s

     107 PPushes remaining with PInf 0.0000000e+00                 0s
       0 PPushes remaining with PInf 0.0000000e+00                 0s

  Push phase complete: Pinf 0.0000000e+00, Dinf 5.8534257e-13      0s

Iteration    Objective       Primal Inf.    Dual Inf.      Time
     110    8.7001763e+01   0.000000e+00   0.000000e+00      0s

Use crossover to convert LP symmetric solution to basic solution...
Crossover log...

      90 PPushes remaining with PInf 0.0000000e+00                 0s
       0 PPushes remaining with PInf 0.0000000e+00                 0s

  Push phase complete: Pinf 0.0000000e+00, Dinf 8.9422018e-13      0s

Iteration    Objective       Primal Inf.    Dual Inf.      Time
     203    8.7001763e+01   0.000000e+00   0.000000e+00      0s

Solved in 203 iterations and 0.04 seconds (0.03 work units)
Optimal objective  8.700176309e+01
